min: c;

c = 3.26611502405081 * u2_t7_h3 + 2.87919865606136 * u2_t7_h4 + 3.89335458125028 * u2_t2_h5 + 3.89335458125028 * u2_t3_h5 + 3.89335458125028 * u2_t7_h5 + 3.46963111769269 * u2_t2_h6 + 3.46963111769269 * u2_t3_h6 + 3.46963111769269 * u2_t4_h6 + 3.46963111769269 * u2_t7_h6 + 3.46963111769269 * u2_t10_h6 + 4.49469502008875 * u2_t2_h7 + 4.49469502008875 * u2_t3_h7 + 4.49469502008875 * u2_t4_h7 + 4.49469502008875 * u2_t7_h7 + 4.49469502008875 * u2_t10_h7 + 5.11308071097714 * u2_t2_h8 + 5.11308071097714 * u2_t3_h8 + 5.11308071097714 * u2_t4_h8 + 5.11308071097714 * u2_t7_h8 + 5.11308071097714 * u2_t10_h8 + 5.02834712565721 * u2_t2_h9 + 5.02834712565721 * u2_t3_h9 + 5.02834712565721 * u2_t4_h9 + 5.02834712565721 * u2_t7_h9 + 5.02834712565721 * u2_t10_h9 + 5.76361434708051 * u2_t2_h10 + 5.76361434708051 * u2_t3_h10 + 5.76361434708051 * u2_t4_h10 + 5.76361434708051 * u2_t7_h10 + 5.76361434708051 * u2_t10_h10 + 3.95826448552148 * u2_t1_h11 + 3.95826448552148 * u2_t2_h11 + 3.95826448552148 * u2_t3_h11 + 3.95826448552148 * u2_t4_h11 + 3.95826448552148 * u2_t7_h11 + 3.95826448552148 * u2_t10_h11 + 5.72505419104223 * u2_t1_h12 + 5.72505419104223 * u2_t3_h12 + 5.72505419104223 * u2_t4_h12 + 5.72505419104223 * u2_t7_h12 + 4.27924533136139 * u2_t1_h13 + 4.27924533136139 * u2_t3_h13 + 4.27924533136139 * u2_t4_h13 + 4.27924533136139 * u2_t7_h13 + 4.27924533136139 * u2_t9_h13 + 5.70815880811847 * u2_t1_h14 + 5.70815880811847 * u2_t3_h14 + 5.70815880811847 * u2_t4_h14 + 5.70815880811847 * u2_t7_h14 + 5.70815880811847 * u2_t9_h14 + 5.98003416608639 * u2_t1_h15 + 5.98003416608639 * u2_t3_h15 + 5.98003416608639 * u2_t4_h15 + 5.98003416608639 * u2_t7_h15 + 5.98003416608639 * u2_t9_h15 + 5.79206578024941 * u2_t1_h16 + 5.79206578024941 * u2_t3_h16 + 5.79206578024941 * u2_t4_h16 + 5.79206578024941 * u2_t7_h16 + 5.79206578024941 * u2_t9_h16 + 6.63430206050305 * u2_t1_h17 + 6.63430206050305 * u2_t3_h17 + 6.63430206050305 * u2_t4_h17 + 6.63430206050305 * u2_t7_h17 + 6.63430206050305 * u2_t9_h17 + 6.30965370653115 * u2_t1_h18 + 6.30965370653115 * u2_t3_h18 + 6.30965370653115 * u2_t4_h18 + 6.30965370653115 * u2_t6_h18 + 6.30965370653115 * u2_t7_h18 + 5.57156307927984 * u2_t1_h19 + 5.57156307927984 * u2_t3_h19 + 5.57156307927984 * u2_t4_h19 + 5.57156307927984 * u2_t5_h19 + 5.57156307927984 * u2_t6_h19 + 5.57156307927984 * u2_t7_h19 + 5.99982560754579 * u2_t1_h20 + 5.99982560754579 * u2_t3_h20 + 5.99982560754579 * u2_t4_h20 + 5.99982560754579 * u2_t6_h20 + 5.99982560754579 * u2_t7_h20 + 5.6983953809261 * u2_t1_h21 + 5.6983953809261 * u2_t3_h21 + 5.6983953809261 * u2_t6_h21 + 5.6983953809261 * u2_t7_h21 + 5.6983953809261 * u2_t8_h21 + 5.30277217071117 * u2_t1_h22 + 5.30277217071117 * u2_t3_h22 + 5.30277217071117 * u2_t7_h22 + 5.30277217071117 * u2_t8_h22 + 5.176008916071 * u2_t3_h23 + 5.176008916071 * u2_t7_h23 + 5.176008916071 * u2_t8_h23;
0 <= u2_t1_h11 <= 1;
0 <= u2_t1_h12 <= 1;
0 <= u2_t1_h13 <= 1;
0 <= u2_t1_h14 <= 1;
0 <= u2_t1_h15 <= 1;
0 <= u2_t1_h16 <= 1;
0 <= u2_t1_h17 <= 1;
0 <= u2_t1_h18 <= 1;
0 <= u2_t1_h19 <= 1;
0 <= u2_t1_h20 <= 1;
0 <= u2_t1_h21 <= 1;
0 <= u2_t1_h22 <= 1;
u2_t1_h11 + u2_t1_h12 + u2_t1_h13 + u2_t1_h14 + u2_t1_h15 + u2_t1_h16 + u2_t1_h17 + u2_t1_h18 + u2_t1_h19 + u2_t1_h20 + u2_t1_h21 + u2_t1_h22 = 2;
0 <= u2_t2_h5 <= 1;
0 <= u2_t2_h6 <= 1;
0 <= u2_t2_h7 <= 1;
0 <= u2_t2_h8 <= 1;
0 <= u2_t2_h9 <= 1;
0 <= u2_t2_h10 <= 1;
0 <= u2_t2_h11 <= 1;
u2_t2_h5 + u2_t2_h6 + u2_t2_h7 + u2_t2_h8 + u2_t2_h9 + u2_t2_h10 + u2_t2_h11 = 2;
0 <= u2_t3_h5 <= 1;
0 <= u2_t3_h6 <= 1;
0 <= u2_t3_h7 <= 1;
0 <= u2_t3_h8 <= 1;
0 <= u2_t3_h9 <= 1;
0 <= u2_t3_h10 <= 1;
0 <= u2_t3_h11 <= 1;
0 <= u2_t3_h12 <= 1;
0 <= u2_t3_h13 <= 1;
0 <= u2_t3_h14 <= 1;
0 <= u2_t3_h15 <= 1;
0 <= u2_t3_h16 <= 1;
0 <= u2_t3_h17 <= 1;
0 <= u2_t3_h18 <= 1;
0 <= u2_t3_h19 <= 1;
0 <= u2_t3_h20 <= 1;
0 <= u2_t3_h21 <= 1;
0 <= u2_t3_h22 <= 1;
0 <= u2_t3_h23 <= 1;
u2_t3_h5 + u2_t3_h6 + u2_t3_h7 + u2_t3_h8 + u2_t3_h9 + u2_t3_h10 + u2_t3_h11 + u2_t3_h12 + u2_t3_h13 + u2_t3_h14 + u2_t3_h15 + u2_t3_h16 + u2_t3_h17 + u2_t3_h18 + u2_t3_h19 + u2_t3_h20 + u2_t3_h21 + u2_t3_h22 + u2_t3_h23 = 1;
0 <= u2_t4_h6 <= 1;
0 <= u2_t4_h7 <= 1;
0 <= u2_t4_h8 <= 1;
0 <= u2_t4_h9 <= 1;
0 <= u2_t4_h10 <= 1;
0 <= u2_t4_h11 <= 1;
0 <= u2_t4_h12 <= 1;
0 <= u2_t4_h13 <= 1;
0 <= u2_t4_h14 <= 1;
0 <= u2_t4_h15 <= 1;
0 <= u2_t4_h16 <= 1;
0 <= u2_t4_h17 <= 1;
0 <= u2_t4_h18 <= 1;
0 <= u2_t4_h19 <= 1;
0 <= u2_t4_h20 <= 1;
u2_t4_h6 + u2_t4_h7 + u2_t4_h8 + u2_t4_h9 + u2_t4_h10 + u2_t4_h11 + u2_t4_h12 + u2_t4_h13 + u2_t4_h14 + u2_t4_h15 + u2_t4_h16 + u2_t4_h17 + u2_t4_h18 + u2_t4_h19 + u2_t4_h20 = 3;
0 <= u2_t5_h19 <= 1;
u2_t5_h19 = 1;
0 <= u2_t6_h18 <= 1;
0 <= u2_t6_h19 <= 1;
0 <= u2_t6_h20 <= 1;
0 <= u2_t6_h21 <= 1;
u2_t6_h18 + u2_t6_h19 + u2_t6_h20 + u2_t6_h21 = 2;
0 <= u2_t7_h3 <= 1;
0 <= u2_t7_h4 <= 1;
0 <= u2_t7_h5 <= 1;
0 <= u2_t7_h6 <= 1;
0 <= u2_t7_h7 <= 1;
0 <= u2_t7_h8 <= 1;
0 <= u2_t7_h9 <= 1;
0 <= u2_t7_h10 <= 1;
0 <= u2_t7_h11 <= 1;
0 <= u2_t7_h12 <= 1;
0 <= u2_t7_h13 <= 1;
0 <= u2_t7_h14 <= 1;
0 <= u2_t7_h15 <= 1;
0 <= u2_t7_h16 <= 1;
0 <= u2_t7_h17 <= 1;
0 <= u2_t7_h18 <= 1;
0 <= u2_t7_h19 <= 1;
0 <= u2_t7_h20 <= 1;
0 <= u2_t7_h21 <= 1;
0 <= u2_t7_h22 <= 1;
0 <= u2_t7_h23 <= 1;
u2_t7_h3 + u2_t7_h4 + u2_t7_h5 + u2_t7_h6 + u2_t7_h7 + u2_t7_h8 + u2_t7_h9 + u2_t7_h10 + u2_t7_h11 + u2_t7_h12 + u2_t7_h13 + u2_t7_h14 + u2_t7_h15 + u2_t7_h16 + u2_t7_h17 + u2_t7_h18 + u2_t7_h19 + u2_t7_h20 + u2_t7_h21 + u2_t7_h22 + u2_t7_h23 = 3;
0 <= u2_t8_h21 <= 1;
0 <= u2_t8_h22 <= 1;
0 <= u2_t8_h23 <= 1;
u2_t8_h21 + u2_t8_h22 + u2_t8_h23 = 2;
0 <= u2_t9_h13 <= 1;
0 <= u2_t9_h14 <= 1;
0 <= u2_t9_h15 <= 1;
0 <= u2_t9_h16 <= 1;
0 <= u2_t9_h17 <= 1;
u2_t9_h13 + u2_t9_h14 + u2_t9_h15 + u2_t9_h16 + u2_t9_h17 = 1;
0 <= u2_t10_h6 <= 1;
0 <= u2_t10_h7 <= 1;
0 <= u2_t10_h8 <= 1;
0 <= u2_t10_h9 <= 1;
0 <= u2_t10_h10 <= 1;
0 <= u2_t10_h11 <= 1;
u2_t10_h6 + u2_t10_h7 + u2_t10_h8 + u2_t10_h9 + u2_t10_h10 + u2_t10_h11 = 2;
